; benchmark generated from python API
(set-info :status unknown)
(declare-fun S_3 () Real)
(declare-fun C () Real)
(declare-fun L_2 () Real)
(declare-fun A_2 () Real)
(declare-fun S_2 () Real)
(declare-fun S_1 () Real)
(declare-fun L_1 () Real)
(declare-fun A_1 () Real)
(declare-fun A_3 () Real)
(declare-fun L_3 () Real)
(declare-fun A_5 () Real)
(declare-fun L_4 () Real)
(declare-fun S_5 () Real)
(declare-fun L_0 () Real)
(declare-fun S_0 () Real)
(declare-fun A_0 () Real)
(declare-fun B () Real)
(declare-fun S_4 () Real)
(declare-fun A_4 () Real)
(assert
 (let (($x39 (>= L_0 0.0)))
 (let (($x1018 (>= C 5.0)))
 (let (($x756 (>= B 5.0)))
 (let (($x5452 (<= (+ (* (- 1.0) S_5) A_2 (* (- 1.0) L_2) (* 2.0 C)) 0.0)))
 (let (($x3554 (<= (+ (* (- 1.0) S_5) (* (- 1.0) L_3) A_3 C) 0.0)))
 (let (($x2852 (<= (+ (* (- 1.0) S_5) A_4 (* (- 1.0) L_4)) 0.0)))
 (let (($x18505 (or $x2852 $x3554 (<= (+ (* (- 1.0) S_5) (* 3.0 C) S_1) 0.0) $x5452)))
 (let (($x15650 (or $x2852 $x3554 (<= (+ (* (- 1.0) S_5) (* 2.0 C) S_2) 0.0))))
 (let (($x1958 (<= (+ (* (- 1.0) S_5) A_1 (* (- 1.0) L_1) (* 3.0 C)) 0.0)))
 (let (($x15613 (or $x1958 $x2852 $x3554 $x5452 (<= (+ (* (- 1.0) S_5) (* 4.0 C) S_0) 0.0))))
 (let ((?x265 (* (- 1.0) B)))
 (let ((?x1170 (* (- 3.0) C)))
 (let ((?x434 (* (- 1.0) A_1)))
 (let ((?x325 (* (- 1.0) L_4)))
 (let (($x20444 (<= 0.0 (+ A_4 ?x325 ?x434 ?x1170 L_1 ?x265))))
 (let ((?x1131 (* 3.0 C)))
 (let ((?x274 (* (- 1.0) L_1)))
 (let ((?x442 (* (- 1.0) A_4)))
 (let (($x20879 (<= 0.0 (+ A_4 ?x325 (* (- 1.0) A_2) (* (- 2.0) C) L_2 ?x265))))
 (let (($x43065 (or (= (+ ?x442 L_4 A_2 (* (- 1.0) L_2) (* 2.0 C) B) 0.0) (not $x20879))))
 (let (($x21054 (<= 0.0 (+ ?x434 C S_0 L_1))))
 (let (($x21055 (not $x21054)))
 (let (($x20514 (<= 0.0 (+ L_3 (* (- 1.0) A_3) A_2 (* (- 1.0) L_2) C))))
 (let (($x20177 (<= 0.0 (+ (* (- 1.0) A_2) A_1 ?x274 C L_2))))
 (let (($x19504 (not $x20177)))
 (let (($x86 (= L_4 L_3)))
 (let (($x20309 (<= 0.0 (+ L_3 (* (- 1.0) A_3) A_4 ?x325 (* (- 1.0) C) ?x265))))
 (let (($x42719 (or $x86 (<= (+ ?x442 L_4 (* 4.0 C) S_0 B) 0.0) $x20309 $x20879 $x21054)))
 (let (($x4311 (<= (+ A_4 ?x325 (* (- 1.0) A_0) (* (- 4.0) C) ?x265 L_0) 0.0)))
 (let (($x20310 (not $x20309)))
 (let (($x42243 (or (<= 0.0 (+ (* (- 1.0) A_3) A_1 (* 2.0 C) ?x274 L_2)) $x20310)))
 (let (($x5449 (<= (+ A_2 (* (- 1.0) L_2) (* (- 1.0) S_3)) 0.0)))
 (let (($x12416 (or (<= (+ A_1 ?x274 C (* (- 1.0) S_3)) 0.0) $x5449 (<= (+ (* 2.0 C) (* (- 1.0) S_3) S_0) 0.0))))
 (let (($x66 (= L_2 L_1)))
 (let (($x1520 (not $x66)))
 (let (($x43069 (or $x86 $x1520 (<= (+ ?x442 L_4 A_2 (* 2.0 C) ?x274) 0.0) $x20309)))
 (let (($x20327 (not (<= 0.0 (+ L_3 ?x325)))))
 (let ((?x349 (* (- 1.0) C)))
 (let ((?x436 (* (- 1.0) A_2)))
 (let ((?x308 (* (- 1.0) L_3)))
 (let (($x20349 (<= 0.0 (+ ?x308 A_3 ?x436 ?x349 L_2 ?x265))))
 (let (($x5522 (= (+ L_3 (* (- 1.0) A_3) A_2 (* (- 1.0) L_2) C B) 0.0)))
 (let (($x24977 (or (= (+ L_3 (* (- 1.0) A_3) A_1 ?x274 (* 2.0 C) B) 0.0) (not (<= 0.0 (+ ?x308 A_3 ?x434 (* (- 2.0) C) L_1 ?x265))))))
 (let (($x20353 (<= 0.0 (+ ?x308 A_3 ?x434 (* (- 2.0) C) L_1 ?x265))))
 (let (($x76 (= L_3 L_2)))
 (let (($x21108 (or $x76 (<= (+ L_3 (* (- 1.0) A_3) ?x1131 S_0 B) 0.0) $x20349 $x20353)))
 (let (($x9624 (or (<= (+ A_1 ?x274 (* (- 1.0) S_2)) 0.0) (<= (+ C (* (- 1.0) S_2) S_0) 0.0))))
 (let (($x20409 (<= 0.0 (+ ?x436 A_1 C ?x274 L_2 ?x265))))
 (let (($x20410 (not $x20409)))
 (let (($x540 (<= 0.0 (+ L_3 (* (- 1.0) A_3) A_1 (* 2.0 C) ?x274 ?x265))))
 (let (($x538 (not $x540)))
 (let (($x56 (= L_1 L_0)))
 (let (($x42234 (or $x86 $x540 (= (+ ?x442 L_4 A_1 ?x1131 ?x274) 0.0) (not (<= 0.0 (+ ?x442 L_4 A_1 ?x274 ?x1131))) $x20409)))
 (let (($x42038 (or $x540 (<= (+ (* (- 1.0) S_5) A_1 ?x1131 ?x274 ?x265) 0.0) $x2852 $x20409)))
 (let (($x19690 (<= 0.0 (+ L_3 (* (- 1.0) A_3) A_1 ?x274 (* 2.0 C)))))
 (let (($x43587 (or $x76 (= (+ L_3 (* (- 1.0) A_3) A_1 (* 2.0 C) ?x274) 0.0) (not $x19690) $x20409)))
 (let (($x3863 (<= (+ L_3 (* (- 1.0) A_3) A_1 (* 2.0 C) (* (- 1.0) L_0)) 0.0)))
 (let (($x2920 (not $x56)))
 (let (($x20688 (or $x76 $x20349 (<= (+ L_3 (* (- 1.0) A_3) (* 2.0 C) S_1 B) 0.0))))
 (let (($x43214 (or $x76 (<= (+ S_5 L_3 (* (- 1.0) A_3) (* (- 2.0) C) B) 0.0))))
 (let ((?x3593 (+ ?x308 A_3 ?x442 L_4 C)))
 (let (($x20249 (<= 0.0 ?x3593)))
 (let (($x20258 (not $x20249)))
 (let (($x43452 (or $x76 $x1520 (<= (+ L_3 (* (- 1.0) A_3) A_2 C ?x274) 0.0))))
 (let (($x3602 (= (+ ?x308 A_3 ?x442 L_4 C B) 0.0)))
 (let (($x514 (<= 0.0 (+ L_3 (* (- 1.0) A_3) A_2 C (* (- 1.0) L_2) ?x265))))
 (let (($x512 (not $x514)))
 (let (($x1477 (<= (+ (* (- 1.0) S_5) A_2 (* 2.0 C) (* (- 1.0) L_2) ?x265) 0.0)))
 (let (($x24131 (or (not (<= 0.0 (+ A_2 ?x434 ?x349 L_1 (* (- 1.0) L_2) ?x265))) (= (+ ?x436 A_1 ?x274 C L_2 B) 0.0))))
 (let ((?x291 (* (- 1.0) L_2)))
 (let ((?x905 (+ L_1 ?x291)))
 (let (($x532 (<= 0.0 ?x905)))
 (let (($x42237 (or $x86 $x514 $x532 (= (+ ?x442 L_4 A_2 (* 2.0 C) ?x291) 0.0))))
 (let (($x1829 (not $x86)))
 (let (($x522 (<= 0.0 (+ A_2 ?x434 ?x349 L_1 ?x291 ?x265))))
 (let (($x1227 (<= (+ A_1 (* (- 1.0) S_2) ?x274 ?x265) 0.0)))
 (let (($x1418 (<= (+ A_2 (* (- 1.0) S_3) ?x291 ?x265) 0.0)))
 (let (($x1675 (<= (+ A_2 (* (- 1.0) A_0) (* (- 2.0) C) ?x291 ?x265 L_0) 0.0)))
 (let (($x140 (>= S_5 S_4)))
 (let (($x128 (>= S_1 S_0)))
 (let (($x131 (>= S_2 S_1)))
 (let (($x134 (>= S_3 S_2)))
 (let (($x142 (>= A_1 A_0)))
 (let (($x143 (>= A_2 A_1)))
 (let (($x144 (>= A_3 A_2)))
 (let (($x146 (>= A_5 A_4)))
 (and (<= (+ A_3 ?x308) S_4) (not (<= (+ A_4 ?x325) S_4)) $x146 $x144 $x143 $x142 $x134 $x131 $x128 $x140 (or $x56 (not (<= 0.0 (+ ?x274 L_0)))) (or $x66 (not $x532)) (or $x56 (<= (+ ?x434 S_1 L_1 B) 0.0)) (or $x66 (<= (+ ?x436 S_2 L_2 B) 0.0)) (or $x66 $x76 (= (+ L_3 (* (- 1.0) A_3) A_2 C ?x291) 0.0)) (<= (+ A_2 ?x1170 (* (- 1.0) S_0) ?x291 ?x265) 0.0) $x1675 (or $x66 (<= (+ S_4 ?x436 (* (- 2.0) C) L_2 B) 0.0)) (or $x66 (<= (+ ?x436 C S_1 L_2 B) 0.0)) (or $x1520 (<= 0.0 (+ ?x436 A_1 C B))) (<= (+ A_2 ?x349 (* (- 1.0) S_2) ?x291 ?x265) 0.0) $x1418 $x1227 (or $x56 (<= (+ ?x434 C S_0 L_1 B) 0.0)) (<= (+ A_2 (* (- 2.0) C) (* (- 1.0) S_1) ?x291 ?x265) 0.0) (or $x56 $x20177) (or $x66 $x522 (<= (+ ?x436 (* 2.0 C) S_0 L_2 B) 0.0)) (or $x66 (<= (+ ?x436 ?x349 S_3 L_2 B) 0.0)) (or $x66 (<= (+ ?x308 A_4 ?x436 (* (- 2.0) C) L_2) 0.0) $x1829) (or $x66 (<= (+ S_5 ?x436 ?x1170 L_2 B) 0.0)) $x42237 (or $x66 (not $x76) (<= 0.0 (+ (* (- 1.0) A_3) A_2 C))) (or $x532 (= (+ ?x436 A_1 C ?x274 L_2) 0.0) $x19504) (<= (+ A_1 (* (- 1.0) A_0) ?x349 ?x274 ?x265 L_0) 0.0) $x24131 (or $x514 $x1477 $x2852) (or $x512 $x2852 $x3554) (or $x86 $x512 $x20258) (or $x86 $x512 $x3602) (<= (+ A_1 ?x349 (* (- 1.0) S_1) ?x274 ?x265) 0.0) (or $x76 (<= (+ L_3 (* (- 1.0) A_3) S_3 B) 0.0)) (<= (+ (* (- 1.0) S_5) A_4 ?x325 ?x265) 0.0) (or $x86 (<= (+ S_4 ?x442 L_4 B) 0.0)) (or $x86 $x20327) $x43452 (or $x76 $x20327 (<= 0.0 (+ A_3 ?x442 C))) (or $x76 (<= (+ L_3 (* (- 1.0) A_3) C S_2 B) 0.0)) (or $x76 $x20349 $x20410) (or $x86 (= ?x3593 0.0) $x20258) (or $x86 (<= (+ S_5 ?x442 L_4 ?x349 B) 0.0)) (<= (+ (* (- 2.0) C) S_1 (* (- 1.0) S_0)) 0.0) (or (<= (+ C (* (- 1.0) S_3) S_1) 0.0) $x5449) (or $x2852 (<= (+ (* (- 1.0) S_5) ?x308 A_3 C ?x265) 0.0)) (or $x76 (not (<= 0.0 (+ ?x308 L_2)))) (or $x76 (<= (+ L_3 (* (- 1.0) A_3) S_4 ?x349 B) 0.0)) $x43214 (<= (+ A_1 (* (- 2.0) C) (* (- 1.0) S_0) ?x274 ?x265) 0.0) (or $x76 $x20249) (or $x20409 (<= (+ A_1 C (* (- 1.0) S_3) ?x274 ?x265) 0.0)) $x20688 (or $x76 $x2920 $x3863 $x20349) $x43587 (or $x56 $x19690) (or $x5449 $x20410) (or $x56 (<= (+ ?x434 ?x349 S_2 L_1 B) 0.0)) $x42038 (or $x56 (<= 0.0 (+ ?x442 L_4 A_1 ?x274 ?x1131))) (or $x86 (<= (+ ?x442 L_4 C S_3 B) 0.0)) $x42234 (or $x56 (<= (+ ?x434 (* (- 2.0) C) S_3 L_1 B) 0.0)) (or $x56 (<= (+ S_4 ?x434 ?x1170 L_1 B) 0.0)) (or $x56 (<= (+ S_5 ?x434 (* (- 4.0) C) L_1 B) 0.0)) (<= (+ S_5 ?x442 L_4 ?x349) 0.0) (or $x86 $x20309 $x20410 $x20879) (or $x86 $x538 $x3602 $x20409) (or $x538 $x2852 $x3554 $x20409) (or $x2852 $x3554 $x5452 $x20410) (<= (+ (* (- 1.0) A_0) ?x349 S_1 L_0) 0.0) (<= (+ ?x308 A_3 ?x1170 (* (- 1.0) S_1) ?x265) 0.0) (<= (+ ?x1170 S_2 (* (- 1.0) S_0)) 0.0) (<= (+ ?x308 A_3 (* (- 4.0) C) (* (- 1.0) S_0) ?x265) 0.0) $x9624 $x21108 $x24977 (<= (+ ?x308 A_3 (* (- 2.0) C) (* (- 1.0) S_2) ?x265) 0.0) (<= (+ ?x308 A_3 (* (- 1.0) A_0) ?x1170 ?x265 L_0) 0.0) (<= (+ ?x308 A_3 ?x349 (* (- 1.0) S_3) ?x265) 0.0) (<= (+ A_4 ?x325 (* (- 4.0) C) (* (- 1.0) S_1) ?x265) 0.0) (<= (+ L_3 (* (- 1.0) A_3) S_4 ?x349) 0.0) (or $x5522 (not $x20349)) (<= (+ (* (- 2.0) C) S_2 (* (- 1.0) S_1)) 0.0) (or (<= 0.0 (+ A_3 ?x442 C B)) $x20327) (<= (+ S_5 L_3 (* (- 1.0) A_3) (* (- 2.0) C)) 0.0) (<= (+ (* (- 1.0) A_0) (* (- 2.0) C) S_2 L_0) 0.0) $x43069 (or $x86 $x20309 (<= (+ ?x442 L_4 (* 2.0 C) S_2 B) 0.0)) (or $x3602 $x20310) (<= (+ A_4 ?x325 (* (- 2.0) C) (* (- 1.0) S_3) ?x265) 0.0) $x12416 (<= (+ ?x434 L_1 ?x349 S_2) 0.0) $x42243 (<= (+ A_4 ?x325 ?x1170 (* (- 1.0) S_2) ?x265) 0.0) (or $x2852 (<= (+ (* (- 1.0) S_5) C S_3) 0.0)) (or $x86 (<= (+ ?x442 L_4 ?x1131 S_1 B) 0.0) $x20309 $x20879) (<= (+ A_4 ?x325 (* (- 5.0) C) (* (- 1.0) S_0) ?x265) 0.0) (<= (+ (* (- 1.0) A_0) ?x1170 S_3 L_0) 0.0) $x4311 (or $x86 $x20177 $x20309 $x20444 $x21055) (or $x86 $x19504 $x20309 (not $x20514) $x21055) $x42719 (or $x86 $x19504 $x20514 $x20879 $x21055) $x43065 (or (= (+ ?x442 L_4 A_1 ?x274 ?x1131 B) 0.0) (not $x20444)) $x15613 (<= (+ S_4 ?x436 L_2 (* (- 2.0) C)) 0.0) (<= (+ S_4 ?x1170 (* (- 1.0) S_2)) 0.0) (<= (+ S_4 ?x434 L_1 ?x1170) 0.0) (<= (+ S_4 (* (- 4.0) C) (* (- 1.0) S_1)) 0.0) $x15650 (<= (+ (* (- 2.0) C) S_3 (* (- 1.0) S_2)) 0.0) (<= (+ ?x1170 S_3 (* (- 1.0) S_1)) 0.0) (<= (+ S_4 (* (- 1.0) A_0) (* (- 4.0) C) L_0) 0.0) (<= (+ S_5 (* (- 5.0) C) (* (- 1.0) S_1)) 0.0) (<= (+ ?x434 L_1 (* (- 2.0) C) S_3) 0.0) (<= (+ S_5 ?x436 L_2 ?x1170) 0.0) (<= (+ S_4 (* (- 2.0) C) (* (- 1.0) S_3)) 0.0) $x18505 (<= (+ S_5 (* (- 1.0) A_0) (* (- 5.0) C) L_0) 0.0) (<= (+ S_5 ?x434 L_1 (* (- 4.0) C)) 0.0) (<= (+ S_5 ?x1170 (* (- 1.0) S_3)) 0.0) (<= (+ S_5 (* (- 4.0) C) (* (- 1.0) S_2)) 0.0) (<= (+ (* (- 4.0) C) S_3 (* (- 1.0) S_0)) 0.0) (<= (+ S_5 (* (- 6.0) C) (* (- 1.0) S_0)) 0.0) (<= (+ S_4 (* (- 5.0) C) (* (- 1.0) S_0)) 0.0) $x756 $x1018 $x39 (<= (+ (* (- 1.0) A_0) S_0 L_0) 0.0) (<= (+ S_5 L_4 (* (- 1.0) A_5)) 0.0) (<= (+ L_3 (* (- 1.0) A_3) S_3) 0.0) (<= (+ ?x434 L_1 S_1) 0.0) (<= (+ ?x436 L_2 S_2) 0.0) (<= (+ ?x436 L_2 ?x349 S_3) 0.0)))))))))))))))))))))))))))))))))))))))))))))))))))))))))))))))))))))))))))))))))))))))))
(check-sat)
